c ENC2
p cnf 39 72
w	1	0.45
w	2	0.0
w	3	0.95
w	4	0.225
w	5	0.0
w	6	0.9999
w	7	0.0
w	8	-1
w	9	-1
w	10	0.0
w	11	-1
w	12	-1
w	13	0.9
w	14	0.45
w	15	0.45
w	16	0.0
w	17	0.45
w	18	0.45
w	19	0.0
w	20	0.9
w	21	0.45
w	22	0.225
w	23	0.225
w	24	0.0
w	25	0.45
w	26	0.0
w	27	-1
w	28	-1
w	29	0.99
w	30	-1
w	31	-1
w	32	-1
w	33	-1
w	34	-1
w	35	0.0
w	36	0.45
w	37	-1
w	38	0.9
w	39	0.45
37 34 0
8 9 0
32 33 0
28 27 0
11 12 0
31 30 0
-37 -34 0
-8 -9 0
-32 -33 0
-28 -27 0
-11 -12 0
-31 -30 0
-3 37 0
3 34 0
-3 37 0
3 34 0
-29 8 0
29 9 0
-3 37 0
3 34 0
-29 8 0
29 9 0
-6 32 0
6 33 0
-37 -8 -32 -20 28 0
-37 -8 -32 20 27 0
-37 -8 -33 -10 28 0
-37 -8 -33 10 27 0
-37 -9 -32 -19 28 0
-37 -9 -32 19 27 0
-37 -9 -33 -21 28 0
-37 -9 -33 21 27 0
-34 -8 -32 -7 28 0
-34 -8 -32 7 27 0
-34 -8 -33 -17 28 0
-34 -8 -33 17 27 0
-34 -9 -32 -18 28 0
-34 -9 -32 18 27 0
-34 -9 -33 -22 28 0
-34 -9 -33 22 27 0
-37 -8 -32 -38 11 0
-37 -8 -32 38 12 0
-37 -8 -33 -26 11 0
-37 -8 -33 26 12 0
-37 -9 -32 -35 11 0
-37 -9 -32 35 12 0
-37 -9 -33 -1 11 0
-37 -9 -33 1 12 0
-34 -8 -32 -24 11 0
-34 -8 -32 24 12 0
-34 -8 -33 -39 11 0
-34 -8 -33 39 12 0
-34 -9 -32 -36 11 0
-34 -9 -32 36 12 0
-34 -9 -33 -4 11 0
-34 -9 -33 4 12 0
-37 -8 -32 -13 31 0
-37 -8 -32 13 30 0
-37 -8 -33 -5 31 0
-37 -8 -33 5 30 0
-37 -9 -32 -16 31 0
-37 -9 -32 16 30 0
-37 -9 -33 -25 31 0
-37 -9 -33 25 30 0
-34 -8 -32 -2 31 0
-34 -8 -32 2 30 0
-34 -8 -33 -14 31 0
-34 -8 -33 14 30 0
-34 -9 -32 -15 31 0
-34 -9 -32 15 30 0
-34 -9 -33 -23 31 0
-34 -9 -33 23 30 0
